; Filename: /home/user/epanet-ai/data/raw/sample_net_01.inp
; WNTR: 1.5.0
; Created: 2026-10-05 09:52:06
[TITLE]
VN-01 - учебная сеть водоснабжения (демо для AI-модуля)

[JUNCTIONS]
;ID                      Elevation       Demand Pattern                 
 J-101                             10    7.7605802652 D-1                        ;
 J-102                             12    5.8253662196 D-1                        ;
 J-103                             15    10.019709254 D-1                        ;
 J-104                             28    4.8764217341 D-2                        ;
 J-105                             30    3.8862742882 D-2                        ;
 J-106                             18     11.66554364 D-1                        ;
 J-107                             22    7.3860755959 D-1                        ;
 J-108                             26    23.335575279 D-1                        ;
 J-109                             28     3.001571679 D-2                        ;

[RESERVOIRS]
;ID                                   Head                  Pattern
 R-1                                5                            ;

[TANKS]
;ID                              Elevation           Init Level            Min Level            Max Level             Diameter           Min Volume Volume Curve         Overflow            
 T-1                               52               3               1               5              12               0                                             ;

[PIPES]
;ID                   Node1                Node2                              Length             Diameter            Roughness           Minor Loss               Status
 P-102                J-101                J-102                            350             250             120               0                 Open   ;
 P-103                J-102                J-103                            300             200             118               0                 Open   ;
 P-104                J-103                J-104                            700             150             110               0                 Open   ;
 P-105                J-104                J-105                            400             100             110               0                 Open   ;
 P-106                J-102                J-106                            500             200             118               0                 Open   ;
 P-107                J-106                J-107                            400             150             115               0                 Open   ;
 P-108                J-107                J-108                            450             100             112               0                 Open   ;
 P-109                J-108                J-103                            500             150             112               0                 Open   ;
 P-110                J-108                J-109                            300             100             110               0                 Open   ;
 P-111                T-1                  J-104                            250             150             115               0                 Open   ;

[PUMPS]
;ID                   Node1                Node2                Properties          
 PU-1                 R-1                  J-101                HEAD     C-1                    ;

[VALVES]
;ID                   Node1                Node2                            Diameter Type              Setting           Minor Loss

[TAGS]
;type      name       tag       

[DEMANDS]
;ID        Demand     Pattern   

[STATUS]
;ID        Setting   

[PATTERNS]
;ID        Multipliers

D-1 1.000000 0.850000 0.750000 0.700000 0.750000 0.900000
D-1 1.150000 1.350000 1.300000 1.200000 1.150000 1.250000
D-1 1.300000 1.250000 1.150000 1.100000 1.100000 1.150000
D-1 1.250000 1.200000 1.050000 0.950000 0.900000 0.950000

D-2 1.000000 0.900000 0.800000 0.750000 0.800000 0.950000
D-2 1.100000 1.200000 1.150000 1.100000 1.050000 1.100000
D-2 1.150000 1.100000 1.050000 1.000000 1.000000 1.050000
D-2 1.100000 1.050000 1.000000 0.950000 0.900000 0.950000

D-3 1.000000 1.000000 1.000000 1.000000 1.000000 1.000000
D-3 1.000000 1.000000 1.000000 1.000000 1.000000 1.000000
D-3 1.000000 1.000000 1.000000 1.000000 1.000000 1.000000
D-3 1.000000 1.000000 1.000000 1.000000 1.000000 1.000000

[CURVES]
;ID         X-Value      Y-Value     
;PUMP: C-1
 C-1            0.000000    70.000000   ;
 C-1           25.000000    68.000000   ;
 C-1           50.000000    63.000000   ;
 C-1           75.000000    54.000000   ;
 C-1          100.000000    40.000000   ;


[CONTROLS]

[RULES]

[ENERGY]
GLOBAL EFFICIENCY      75.0000
GLOBAL PRICE           0.0000
DEMAND CHARGE          0.0000

[EMITTERS]
;ID        Flow coefficient

[QUALITY]

[SOURCES]
;Node      Type       Quality    Pattern   

[REACTIONS]
;Type           Pipe/Tank               Coefficient

 ORDER BULK 1
 ORDER TANK 1
 ORDER WALL 1
 GLOBAL BULK 0.0000    
 GLOBAL WALL 0.0000    

[MIXING]
;Tank ID             Model Fraction

[TIMES]
DURATION             24:00:00
HYDRAULIC TIMESTEP   01:00:00
QUALITY TIMESTEP     00:05:00
PATTERN TIMESTEP     01:00:00
PATTERN START        00:00:00
REPORT TIMESTEP      01:00:00
REPORT START         00:00:00
START CLOCKTIME      00:00:00 AM
RULE TIMESTEP        00:06:00
STATISTIC            NONE      

[REPORT]
STATUS     YES
ENERGY     YES
NODES      ALL
LINKS      ALL

[OPTIONS]
UNITS                LPS                 
HEADLOSS             H-W                 
SPECIFIC GRAVITY     1
VISCOSITY            1
TRIALS               60
ACCURACY             0.001
CHECKFREQ            2
MAXCHECK             10
UNBALANCED           CONTINUE 10
PATTERN              D-3                 
DEMAND MULTIPLIER    1
DEMAND MODEL         PDA
MINIMUM PRESSURE     0.00
REQUIRED PRESSURE    20.00
PRESSURE EXPONENT    0.5
EMITTER EXPONENT     0.5
QUALITY              NONE                
DIFFUSIVITY          1
TOLERANCE            0.01

[COORDINATES]
;Node      X-Coord    Y-Coord   
J-101             250.000000000          0.000000000
J-102             550.000000000          0.000000000
J-103             900.000000000          0.000000000
J-104            1250.000000000       -200.000000000
J-105            1700.000000000       -300.000000000
J-106             800.000000000        400.000000000
J-107            1200.000000000        400.000000000
J-108            1400.000000000        100.000000000
J-109            1750.000000000        150.000000000
R-1                 0.000000000          0.000000000
T-1              1250.000000000       -650.000000000

[VERTICES]
;Link      X-Coord    Y-Coord   

[LABELS]

[BACKDROP]
UNITS    NONE

[END]
