[TITLE]
VN-01 - учебная сеть водоснабжения (демо для AI-модуля)

[JUNCTIONS]
;ID              Elev         Demand       Pattern
 J-101           10.0         8.0          D-1
 J-102           12.0         6.0          D-1
 J-103           15.0         10.0         D-1
 J-104           28.0         5.0          D-2
 J-105           30.0         4.0          D-2
 J-106           18.0         12.0         D-1
 J-107           22.0         7.0          D-1
 J-108           26.0         9.0          D-1
 J-109           28.0         3.0          D-2

[RESERVOIRS]
;ID              Head         Pattern
 R-1             5.0

[TANKS]
;ID              Elev         InitLvl      MinLvl       MaxLvl       Diam         MinVol       VolCurve
 T-1             52.0         3.0          1.0          5.0          12.0         0

[PIPES]
;ID              Node1        Node2        Length       Diam         Roughness    MinorLoss    Status
 P-102           J-101        J-102        350          250          120          0            Open
 P-103           J-102        J-103        300          200          118          0            Open
 P-104           J-103        J-104        700          150          110          0            Open
 P-105           J-104        J-105        400          100          110          0            Open
 P-106           J-102        J-106        500          200          118          0            Open
 P-107           J-106        J-107        400          150          115          0            Open
 P-108           J-107        J-108        450          100          112          0            Open
 P-109           J-108        J-103        500          150          112          0            Open
 P-110           J-108        J-109        300          100          110          0            Open
 P-111           T-1          J-104        250          150          115          0            Open

[PUMPS]
;ID              Node1        Node2        Parameters
 PU-1            R-1          J-101        HEAD C-1

[PATTERNS]
;ID              Multipliers
 D-1             1.00 0.85 0.75 0.70 0.75 0.90 1.15 1.35 1.30 1.20 1.15 1.25
 D-1             1.30 1.25 1.15 1.10 1.10 1.15 1.25 1.20 1.05 0.95 0.90 0.95
 D-2             1.00 0.90 0.80 0.75 0.80 0.95 1.10 1.20 1.15 1.10 1.05 1.10
 D-2             1.15 1.10 1.05 1.00 1.00 1.05 1.10 1.05 1.00 0.95 0.90 0.95
 D-3             1.00 1.00 1.00 1.00 1.00 1.00 1.00 1.00 1.00 1.00 1.00 1.00
 D-3             1.00 1.00 1.00 1.00 1.00 1.00 1.00 1.00 1.00 1.00 1.00 1.00

[CURVES]
;ID              X(Q,lps)     Y(H,m)
 C-1             0            70.0
 C-1             25           68.0
 C-1             50           63.0
 C-1             75           54.0
 C-1             100          40.0

[STATUS]

[DEMANDS]

[QUALITY]

[REACTIONS]

[ENERGY]
 Global Efficiency   75
 Global Price        0.0
 Demand Charge       0.0

[TIMES]
 Duration            24:00
 Hydraulic Timestep  1:00
 Quality Timestep    0:05
 Pattern Timestep    1:00
 Pattern Start       0:00
 Report Timestep     1:00
 Start ClockTime     0:00
 Statistic           NONE

[REPORT]
 Status              Yes
 Summary             Yes
 Energy              Yes
 Nodes               ALL
 Links               ALL

[OPTIONS]
 Units               LPS
 Headloss            H-W
 Specific Gravity    1.0
 Viscosity           1.0
 Trials              60
 Accuracy            0.001
 Unbalanced          Continue 10
 Pattern              D-3
 Demand Multiplier   1.0
 Emitter Exponent    0.5
 Quality             NONE
 Diffusivity         1.0
 Tolerance           0.01

[COORDINATES]
 R-1    0.00     0.00
 J-101  250.00   0.00
 J-102  550.00   0.00
 J-103  900.00   0.00
 J-104  1250.00 -200.00
 J-105  1700.00 -300.00
 J-106  800.00   400.00
 J-107  1200.00  400.00
 J-108  1400.00  100.00
 J-109  1750.00  150.00
 T-1    1250.00 -650.00

[END]
